 &CONTROL
  calculation = 'relax' ,
  outdir = './tmp' ,
  prefix = 'Al_H1_et3_3_3',
  pseudo_dir = './' ,
  tprnfor = .True.,
  tstress = .True.,
 /
 &SYSTEM
  ibrav = 4,
  celldm(1) = 16.128,
  celldm(3) = 14.696938456699067,
  nat = 144,
  ntyp = 1,
  ecutwfc = 90,
  ecutrho = 450,
  occupations = 'smearing',
  smearing = 'cold',
  degauss = 0.025,
 /
 &ELECTRONS
  diagonalization = 'david',
  conv_thr = 0.000144,
  mixing_beta = 0.3,
  mixing_mode = 'local-TF'
 /
 &IONS
  ion_dynamics = 'bfgs',
 /
ATOMIC_SPECIES
  Al   26.98   Al.pbe-n-van.UPF
  H   1.0079   H.pbe-rrkjus.UPF
ATOMIC_POSITIONS crystal 
  Al 0.166666493 0.083333001 0.05555549766666667
  Al 0.166666493 0.333333015 0.05555549766666667
  Al 0.166666493 0.583333015 0.05555549766666667
  Al 0.166666493 0.833333015 0.05555549766666667
  Al 0.416666508 0.083333001 0.05555549766666667
  Al 0.416666508 0.333333015 0.05555549766666667
  Al 0.416666508 0.583333015 0.05555549766666667
  Al 0.416666508 0.833333015 0.05555549766666667
  Al 0.666666508 0.083333001 0.05555549766666667
  Al 0.666666508 0.333333015 0.05555549766666667
  Al 0.666666508 0.583333015 0.05555549766666667
  Al 0.666666508 0.833333015 0.05555549766666667
  Al 0.916666508 0.083333001 0.05555549766666667
  Al 0.916666508 0.333333015 0.05555549766666667
  Al 0.916666508 0.583333015 0.05555549766666667
  Al 0.916666508 0.833333015 0.05555549766666667
  Al 0.0 0.0 0.0
  Al 0.0 0.25 0.0
  Al 0.0 0.5 0.0
  Al 0.0 0.75 0.0
  Al 0.25 0.0 0.0
  Al 0.25 0.25 0.0
  Al 0.25 0.5 0.0
  Al 0.25 0.75 0.0
  Al 0.5 0.0 0.0
  Al 0.5 0.25 0.0
  Al 0.5 0.5 0.0
  Al 0.5 0.75 0.0
  Al 0.75 0.0 0.0
  Al 0.75 0.25 0.0
  Al 0.75 0.5 0.0
  Al 0.75 0.75 0.0
  Al 0.083333001 0.166666493 0.11111116416666666
  Al 0.083333001 0.416666508 0.11111116416666666
  Al 0.083333001 0.666666508 0.11111116416666666
  Al 0.083333001 0.916666508 0.11111116416666666
  Al 0.333333015 0.166666493 0.11111116416666666
  Al 0.333333015 0.416666508 0.11111116416666666
  Al 0.333333015 0.666666508 0.11111116416666666
  Al 0.333333015 0.916666508 0.11111116416666666
  Al 0.583333015 0.166666493 0.11111116416666666
  Al 0.583333015 0.416666508 0.11111116416666666
  Al 0.583333015 0.666666508 0.11111116416666666
  Al 0.583333015 0.916666508 0.11111116416666666
  Al 0.833333015 0.166666493 0.11111116416666666
  Al 0.833333015 0.416666508 0.11111116416666666
  Al 0.833333015 0.666666508 0.11111116416666666
  Al 0.833333015 0.916666508 0.11111116416666666
  Al 0.166666493 0.083333001 0.22222216433333333
  Al 0.166666493 0.333333015 0.22222216433333333
  Al 0.166666493 0.583333015 0.22222216433333333
  Al 0.166666493 0.833333015 0.22222216433333333
  Al 0.416666508 0.083333001 0.22222216433333333
  Al 0.416666508 0.333333015 0.22222216433333333
  Al 0.416666508 0.583333015 0.22222216433333333
  Al 0.416666508 0.833333015 0.22222216433333333
  Al 0.666666508 0.083333001 0.22222216433333333
  Al 0.666666508 0.333333015 0.22222216433333333
  Al 0.666666508 0.583333015 0.22222216433333333
  Al 0.666666508 0.833333015 0.22222216433333333
  Al 0.916666508 0.083333001 0.22222216433333333
  Al 0.916666508 0.333333015 0.22222216433333333
  Al 0.916666508 0.583333015 0.22222216433333333
  Al 0.916666508 0.833333015 0.22222216433333333
  Al 0.0 0.0 0.16666666666666666
  Al 0.0 0.25 0.16666666666666666
  Al 0.0 0.5 0.16666666666666666
  Al 0.0 0.75 0.16666666666666666
  Al 0.25 0.0 0.16666666666666666
  Al 0.25 0.25 0.16666666666666666
  Al 0.25 0.5 0.16666666666666666
  Al 0.25 0.75 0.16666666666666666
  Al 0.5 0.0 0.16666666666666666
  Al 0.5 0.25 0.16666666666666666
  Al 0.5 0.5 0.16666666666666666
  Al 0.5 0.75 0.16666666666666666
  Al 0.75 0.0 0.16666666666666666
  Al 0.75 0.25 0.16666666666666666
  Al 0.75 0.5 0.16666666666666666
  Al 0.75 0.75 0.16666666666666666
  Al 0.083333001 0.166666493 0.2777778308333333
  Al 0.083333001 0.416666508 0.2777778308333333
  Al 0.083333001 0.666666508 0.2777778308333333
  Al 0.083333001 0.916666508 0.2777778308333333
  Al 0.333333015 0.166666493 0.2777778308333333
  Al 0.333333015 0.416666508 0.2777778308333333
  Al 0.333333015 0.666666508 0.2777778308333333
  Al 0.333333015 0.916666508 0.2777778308333333
  Al 0.583333015 0.166666493 0.2777778308333333
  Al 0.583333015 0.416666508 0.2777778308333333
  Al 0.583333015 0.666666508 0.2777778308333333
  Al 0.583333015 0.916666508 0.2777778308333333
  Al 0.833333015 0.166666493 0.2777778308333333
  Al 0.833333015 0.416666508 0.2777778308333333
  Al 0.833333015 0.666666508 0.2777778308333333
  Al 0.833333015 0.916666508 0.2777778308333333
  Al 0.166666493 0.083333001 0.388888831
  Al 0.166666493 0.333333015 0.388888831
  Al 0.166666493 0.583333015 0.388888831
  Al 0.166666493 0.833333015 0.388888831
  Al 0.416666508 0.083333001 0.388888831
  Al 0.416666508 0.333333015 0.388888831
  Al 0.416666508 0.583333015 0.388888831
  Al 0.416666508 0.833333015 0.388888831
  Al 0.666666508 0.083333001 0.388888831
  Al 0.666666508 0.333333015 0.388888831
  Al 0.666666508 0.583333015 0.388888831
  Al 0.666666508 0.833333015 0.388888831
  Al 0.916666508 0.083333001 0.388888831
  Al 0.916666508 0.333333015 0.388888831
  Al 0.916666508 0.583333015 0.388888831
  Al 0.916666508 0.833333015 0.388888831
  Al 0.0 0.0 0.3333333333333333
  Al 0.0 0.25 0.3333333333333333
  Al 0.0 0.5 0.3333333333333333
  Al 0.0 0.75 0.3333333333333333
  Al 0.25 0.0 0.3333333333333333
  Al 0.25 0.25 0.3333333333333333
  Al 0.25 0.5 0.3333333333333333
  Al 0.25 0.75 0.3333333333333333
  Al 0.5 0.0 0.3333333333333333
  Al 0.5 0.25 0.3333333333333333
  Al 0.5 0.5 0.3333333333333333
  Al 0.5 0.75 0.3333333333333333
  Al 0.75 0.0 0.3333333333333333
  Al 0.75 0.25 0.3333333333333333
  Al 0.75 0.5 0.3333333333333333
  Al 0.75 0.75 0.3333333333333333
  Al 0.083333001 0.166666493 0.4444444975
  Al 0.083333001 0.416666508 0.4444444975
  Al 0.083333001 0.666666508 0.4444444975
  Al 0.083333001 0.916666508 0.4444444975
  Al 0.333333015 0.166666493 0.4444444975
  Al 0.333333015 0.416666508 0.4444444975
  Al 0.333333015 0.666666508 0.4444444975
  Al 0.333333015 0.916666508 0.4444444975
  Al 0.583333015 0.166666493 0.4444444975
  Al 0.583333015 0.416666508 0.4444444975
  Al 0.583333015 0.666666508 0.4444444975
  Al 0.583333015 0.916666508 0.4444444975
  Al 0.833333015 0.166666493 0.4444444975
  Al 0.833333015 0.416666508 0.4444444975
  Al 0.833333015 0.666666508 0.4444444975
  Al 0.833333015 0.916666508 0.4444444975
  H 0.083333001 0.166666493 0.4624444975
K_POINTS Automatic 
  24 24 1  0 0 0
