 &CONTROL
  calculation = 'relax' ,
  outdir = './tmp' ,
  prefix = 'Al_100_6_4',
  pseudo_dir = './' ,
  tprnfor = .True.,
  tstress = .True.,
 /
 &SYSTEM
  ibrav = 6,
  celldm(1) = 7.605,
  celldm(3) = 10,
  nat = 24,
  ntyp = 1,
  ecutwfc = 80,
  ecutrho = 150,
  occupations = 'smearing',
  smearing = 'cold',
  degauss = 0.025,
 /
 &ELECTRONS
  diagonalization = 'david',
  conv_thr = 1.D-6,
  mixing_beta = 0.3,
  mixing_mode = 'local-TF'
 /
 &IONS
  ion_dynamics = 'bfgs',
 /
ATOMIC_SPECIES
  Al   26.98  Al.pbe-n-van.UPF
ATOMIC_POSITIONS crystal 
  Al 0.0 0.0 0.0
  Al 0.5 0.5 0.0
  Al 0.5 0.0 0.05
  Al 0.0 0.5 0.05
  Al 0.0 0.0 0.1
  Al 0.5 0.5 0.1
  Al 0.5 0.0 0.15
  Al 0.0 0.5 0.15
  Al 0.0 0.0 0.2
  Al 0.5 0.5 0.2
  Al 0.5 0.0 0.25
  Al 0.0 0.5 0.25
  Al 0.0 0.0 0.3
  Al 0.5 0.5 0.3
  Al 0.5 0.0 0.35
  Al 0.0 0.5 0.35
  Al 0.0 0.0 0.4
  Al 0.5 0.5 0.4
  Al 0.5 0.0 0.45
  Al 0.0 0.5 0.45
  Al 0.0 0.0 0.5
  Al 0.5 0.5 0.5
  Al 0.5 0.0 0.55
  Al 0.0 0.5 0.55
K_POINTS automatic 
  16 16 1   0 0 0
