 &CONTROL
  calculation = 'relax' ,
  outdir = './tmp' ,
  prefix = 'Al_111_H_top_5_4',
  pseudo_dir = './' ,
  tprnfor = .True.,
  tstress = .True.,
 /
 &SYSTEM
  ibrav = 4,
  celldm(1) = 5.376,
  celldm(3) = 22.045407685048602,
  nat = 16,
  ntyp = 2,
  ecutwfc = 90,
  ecutrho = 450,
  occupations = 'smearing',
  smearing = 'cold',
  degauss = 0.025,
 /
 &ELECTRONS
  diagonalization = 'david',
  conv_thr = 1.9999999999999998e-05,
  mixing_beta = 0.3,
  mixing_mode = 'local-TF'
 /
 &IONS
  ion_dynamics = 'bfgs',
 /
ATOMIC_SPECIES
  Al   26.98   Al.pbe-n-van.UPF
  H   1.0079   H.pbe-rrkjus.UPF
ATOMIC_POSITIONS crystal 
  Al 0.3333333 0.6666666 0.07407406666666666
  Al 0.6666666 0.3333333 0.03703703333333333
  Al 0.0 0.0 0.0
  Al 0.3333333 0.6666666 0.18518517777777777
  Al 0.6666666 0.3333333 0.14814814444444444
  Al 0.0 0.0 0.1111111111111111
  Al 0.3333333 0.6666666 0.29629628888888887
  Al 0.6666666 0.3333333 0.2592592555555555
  Al 0.0 0.0 0.2222222222222222
  Al 0.3333333 0.6666666 0.4074074
  Al 0.6666666 0.3333333 0.3703703666666667
  Al 0.0 0.0 0.3333333333333333
  Al 0.3333333 0.6666666 0.518518511111111
  Al 0.6666666 0.3333333 0.4814814777777777
  Al 0.0 0.0 0.4444444444444444
  H 0.3333333 0.6666666 0.5305185111
K_POINTS Automatic 
  16 16 1  0 0 0
