 &CONTROL
  calculation = 'relax' ,
  outdir = './tmp' ,
  prefix = 'Al_111_5_4',
  pseudo_dir = './' ,
  tprnfor = .True.,
  tstress = .True.,
 /
 &SYSTEM
  ibrav = 4,
  celldm(1) = 10.752,
  celldm(3) = 22.045407685048602,
  nat = 61,
  ntyp = 2,
  ecutwfc = 90,
  ecutrho = 450,
  occupations = 'smearing',
  smearing = 'cold',
  degauss = 0.025,
 /
 &ELECTRONS
  diagonalization = 'david',
  conv_thr = 5.9999999999999995e-05,
  mixing_beta = 0.3,
  mixing_mode = 'local-TF'
 /
 &IONS
  ion_dynamics = 'bfgs',
 /
ATOMIC_SPECIES
  Al   26.98   Al.pbe-n-van.UPF
  H   1.0079   H.pbe-rrkjus.UPF
ATOMIC_POSITIONS crystal 
  Al 0.333333492 0.166666493 0.03703699844444444
  Al 0.333333492 0.666666508 0.03703699844444444
  Al 0.833333492 0.166666493 0.03703699844444444
  Al 0.833333492 0.666666508 0.03703699844444444
  Al 0.0 0.0 0.0
  Al 0.0 0.5 0.0
  Al 0.5 0.0 0.0
  Al 0.5 0.5 0.0
  Al 0.166666493 0.333333492 0.07407410944444444
  Al 0.166666493 0.833333492 0.07407410944444444
  Al 0.666666508 0.333333492 0.07407410944444444
  Al 0.666666508 0.833333492 0.07407410944444444
  Al 0.333333492 0.166666493 0.14814810955555555
  Al 0.333333492 0.666666508 0.14814810955555555
  Al 0.833333492 0.166666493 0.14814810955555555
  Al 0.833333492 0.666666508 0.14814810955555555
  Al 0.0 0.0 0.1111111111111111
  Al 0.0 0.5 0.1111111111111111
  Al 0.5 0.0 0.1111111111111111
  Al 0.5 0.5 0.1111111111111111
  Al 0.166666493 0.333333492 0.18518522055555553
  Al 0.166666493 0.833333492 0.18518522055555553
  Al 0.666666508 0.333333492 0.18518522055555553
  Al 0.666666508 0.833333492 0.18518522055555553
  Al 0.333333492 0.166666493 0.2592592206666666
  Al 0.333333492 0.666666508 0.2592592206666666
  Al 0.833333492 0.166666493 0.2592592206666666
  Al 0.833333492 0.666666508 0.2592592206666666
  Al 0.0 0.0 0.2222222222222222
  Al 0.0 0.5 0.2222222222222222
  Al 0.5 0.0 0.2222222222222222
  Al 0.5 0.5 0.2222222222222222
  Al 0.166666493 0.333333492 0.29629633166666663
  Al 0.166666493 0.833333492 0.29629633166666663
  Al 0.666666508 0.333333492 0.29629633166666663
  Al 0.666666508 0.833333492 0.29629633166666663
  Al 0.333333492 0.166666493 0.3703703317777778
  Al 0.333333492 0.666666508 0.3703703317777778
  Al 0.833333492 0.166666493 0.3703703317777778
  Al 0.833333492 0.666666508 0.3703703317777778
  Al 0.0 0.0 0.3333333333333333
  Al 0.0 0.5 0.3333333333333333
  Al 0.5 0.0 0.3333333333333333
  Al 0.5 0.5 0.3333333333333333
  Al 0.166666493 0.333333492 0.40740744277777774
  Al 0.166666493 0.833333492 0.40740744277777774
  Al 0.666666508 0.333333492 0.40740744277777774
  Al 0.666666508 0.833333492 0.40740744277777774
  Al 0.333333492 0.166666493 0.48148144288888883
  Al 0.333333492 0.666666508 0.48148144288888883
  Al 0.833333492 0.166666493 0.48148144288888883
  Al 0.833333492 0.666666508 0.48148144288888883
  Al 0.0 0.0 0.4444444444444444
  Al 0.0 0.5 0.4444444444444444
  Al 0.5 0.0 0.4444444444444444
  Al 0.5 0.5 0.4444444444444444
  Al 0.166666493 0.333333492 0.5185185538888889
  Al 0.166666493 0.833333492 0.5185185538888889
  Al 0.666666508 0.333333492 0.5185185538888889
  Al 0.666666508 0.833333492 0.5185185538888889
  H 0.166666493 0.333333492 0.5305185539
K_POINTS Automatic 
  18 18 1  0 0 0
