 &CONTROL
  calculation = 'relax' ,
  outdir = './tmp' ,
  prefix = 'Al_H4_et1_3_3',
  pseudo_dir = './' ,
  tprnfor = .True.,
  tstress = .True.,
 /
 &SYSTEM
  ibrav = 4,
  celldm(1) = 10.752,
  celldm(3) = 14.696938456699067,
  nat = 37,
  ntyp = 2,
  ecutwfc = 30,
  ecutrho = 150,
  occupations = 'smearing',
  smearing = 'cold',
  degauss = 0.025,
 /
 &ELECTRONS
  diagonalization = 'david',
  conv_thr = 3.6e-05,
  mixing_beta = 0.3,
  mixing_mode = 'local-TF'
 /
 &IONS
  ion_dynamics = 'bfgs',
 /
ATOMIC_SPECIES
  Al   26.98   Al.pbe-n-van.UPF
  H   1.0079   H.pbe-rrkjus.UPF
ATOMIC_POSITIONS crystal 
Al       0.333341827   0.166670660   0.055557053
Al       0.333333492   0.666666508   0.055556921
Al       0.833329325   0.166670660   0.055557053
Al       0.833329325   0.666658173   0.055557053
Al      -0.000000000  -0.000000000   0.000026526
Al      -0.000005683   0.499997159   0.000026494
Al       0.500002841   0.000005683   0.000026494
Al       0.500002841   0.499997159   0.000026494
Al       0.166665774   0.333332054   0.111111102
Al       0.166665774   0.833334211   0.111111102
Al       0.666666508   0.333333492   0.111111136
Al       0.666667946   0.833334211   0.111111102
Al       0.333372256   0.166685875   0.222222669
Al       0.333333492   0.666666508   0.222222141
Al       0.833314110   0.166685875   0.222222669
Al       0.833314110   0.666627744   0.222222669
Al       0.000000000   0.000000000   0.166667588
Al      -0.000001103   0.499999448   0.166667110
Al       0.500000552   0.000001103   0.166667110
Al       0.500000552   0.499999448   0.166667110
Al       0.166616426   0.333233359   0.277777648
Al       0.166616426   0.833383559   0.277777648
Al       0.666666508   0.333333492   0.277782363
Al       0.666766641   0.833383559   0.277777648
Al       0.333090062   0.166544778   0.388847701
Al       0.333333492   0.666666508   0.388875938
Al       0.833455207   0.166544778   0.388847701
Al       0.833455207   0.666909938   0.388847701
Al       0.000000000   0.000000000   0.333582962
Al      -0.000010523   0.499994738   0.333331720
Al       0.500005262   0.000010523   0.333331720
Al       0.500005262   0.499994738   0.333331720
Al       0.166583638   0.333167782   0.444417759
Al       0.166583638   0.833416347   0.444417759
Al       0.666666508   0.333333492   0.444414790
Al       0.666832218   0.833416347   0.444417759
H        0.000000000   0.000000000   0.360992878
K_POINTS Automatic 
  20 20 1  0 0 0
