 &CONTROL
  calculation = 'relax' ,
  outdir = './tmp' ,
  prefix = 'H2_gas',
  pseudo_dir = './' ,
  tprnfor = .True.,
  tstress = .True.,
 /
 &SYSTEM
  ibrav = 4,
  celldm(1) = 15.118,
  celldm(3) = 1,
  nat = 2,
  ntyp = 1,
  ecutwfc = 50,
  ecutrho = 500,
 /
 &ELECTRONS
 /
 &IONS
  ion_dynamics = 'bfgs',
 /
ATOMIC_SPECIES
  H   1.00794  H.pbe-rrkjus.UPF
ATOMIC_POSITIONS crystal 
  H 0.0 0.0 0.0
  H 0.09274882869192273 0 0
K_POINTS automatic 
  20 20 20   0 0 0
