 &CONTROL
  calculation = 'relax' ,
  outdir = './tmp' ,
  prefix = 'Al_100_8_4',
  pseudo_dir = './' ,
  tprnfor = .True.,
  tstress = .True.,
 /
 &SYSTEM
  ibrav = 6,
  celldm(1) = 7.605,
  celldm(3) = 12,
  nat = 32,
  ntyp = 1,
  ecutwfc = 80,
  ecutrho = 150,
  occupations = 'smearing',
  smearing = 'cold',
  degauss = 0.025,
 /
 &ELECTRONS
  diagonalization = 'david',
  conv_thr = 1.D-6,
  mixing_beta = 0.3,
  mixing_mode = 'local-TF'
 /
 &IONS
  ion_dynamics = 'bfgs',
 /
ATOMIC_SPECIES
  Al   26.98  Al.pbe-n-van.UPF
ATOMIC_POSITIONS crystal 
  Al 0.0 0.0 0.0
  Al 0.5 0.5 0.0
  Al 0.5 0.0 0.0416666666667
  Al 0.0 0.5 0.0416666666667
  Al 0.0 0.0 0.0833333333333
  Al 0.5 0.5 0.0833333333333
  Al 0.5 0.0 0.125
  Al 0.0 0.5 0.125
  Al 0.0 0.0 0.166666666667
  Al 0.5 0.5 0.166666666667
  Al 0.5 0.0 0.208333333333
  Al 0.0 0.5 0.208333333333
  Al 0.0 0.0 0.25
  Al 0.5 0.5 0.25
  Al 0.5 0.0 0.291666666667
  Al 0.0 0.5 0.291666666667
  Al 0.0 0.0 0.333333333333
  Al 0.5 0.5 0.333333333333
  Al 0.5 0.0 0.375
  Al 0.0 0.5 0.375
  Al 0.0 0.0 0.416666666667
  Al 0.5 0.5 0.416666666667
  Al 0.5 0.0 0.458333333333
  Al 0.0 0.5 0.458333333333
  Al 0.0 0.0 0.5
  Al 0.5 0.5 0.5
  Al 0.5 0.0 0.541666666667
  Al 0.0 0.5 0.541666666667
  Al 0.0 0.0 0.583333333333
  Al 0.5 0.5 0.583333333333
  Al 0.5 0.0 0.625
  Al 0.0 0.5 0.625
K_POINTS automatic 
  16 16 1   0 0 0
