 &CONTROL
  calculation = 'relax' ,
  outdir = './tmp' ,
  prefix = 'Al_100_7_4',
  pseudo_dir = './' ,
  tprnfor = .True.,
  tstress = .True.,
 /
 &SYSTEM
  ibrav = 6,
  celldm(1) = 7.605,
  celldm(3) = 11,
  nat = 28,
  ntyp = 1,
  ecutwfc = 80,
  ecutrho = 150,
  occupations = 'smearing',
  smearing = 'cold',
  degauss = 0.025,
 /
 &ELECTRONS
  diagonalization = 'david',
  conv_thr = 1.D-6,
  mixing_beta = 0.3,
  mixing_mode = 'local-TF'
 /
 &IONS
  ion_dynamics = 'bfgs',
 /
ATOMIC_SPECIES
  Al   26.98  Al.pbe-n-van.UPF
ATOMIC_POSITIONS crystal 
  Al 0.0 0.0 0.0
  Al 0.5 0.5 0.0
  Al 0.5 0.0 0.0454545454545
  Al 0.0 0.5 0.0454545454545
  Al 0.0 0.0 0.0909090909091
  Al 0.5 0.5 0.0909090909091
  Al 0.5 0.0 0.136363636364
  Al 0.0 0.5 0.136363636364
  Al 0.0 0.0 0.181818181818
  Al 0.5 0.5 0.181818181818
  Al 0.5 0.0 0.227272727273
  Al 0.0 0.5 0.227272727273
  Al 0.0 0.0 0.272727272727
  Al 0.5 0.5 0.272727272727
  Al 0.5 0.0 0.318181818182
  Al 0.0 0.5 0.318181818182
  Al 0.0 0.0 0.363636363636
  Al 0.5 0.5 0.363636363636
  Al 0.5 0.0 0.409090909091
  Al 0.0 0.5 0.409090909091
  Al 0.0 0.0 0.454545454545
  Al 0.5 0.5 0.454545454545
  Al 0.5 0.0 0.5
  Al 0.0 0.5 0.5
  Al 0.0 0.0 0.545454545455
  Al 0.5 0.5 0.545454545455
  Al 0.5 0.0 0.590909090909
  Al 0.0 0.5 0.590909090909
K_POINTS automatic 
  16 16 1   0 0 0
